AES/1_3_4/ssaes_r1-20_c3_rw1_e4_f0_k1-20_aes_canon_box_aes_mc_bidirectional/ExperimentMinisat_r20_k16cnf_2011-10-29-152209/Result
WARNING: for repeatability, setting FPU to use double precision
============================[ Problem Statistics ]=============================
|                                                                             |
|  Number of variables:          2436                                         |
|  Number of clauses:           14528                                         |
|  Parse time:                   0.01 s                                       |
|  Eliminated clauses:           0.02 Mb                                      |
|  Simplification time:          0.02 s                                       |
|                                                                             |
=============================[ Search Statistics ]==============================
| Conflicts  |          ORIGINAL         |          LEARNT          | Progress |
|            |    Vars  Clauses Literals |    Limit  Clauses Lit/Cl |          |
================================================================================
|        100 |    2000    13336    41424 |     4889      100     23 |  4.270 % |
|        250 |    2000    13336    41424 |     5378      250     20 |  4.269 % |
|        475 |    2000    13336    41424 |     5916      475     19 |  4.269 % |
|        812 |    2000    13336    41424 |     6508      812     18 |  4.269 % |
|       1318 |    2000    13336    41424 |     7159     1318     17 |  4.269 % |
|       2077 |    2000    13336    41424 |     7875     2077     17 |  4.269 % |
|       3216 |    2000    13336    41424 |     8662     3216     15 |  4.269 % |
===============================================================================
restarts              : 21
conflicts             : 3886           (6488 /sec)
decisions             : 4451           (0.00 % random) (7432 /sec)
propagations          : 4156277        (6939759 /sec)
conflict literals     : 59019          (67.29 % deleted)
Memory used           : 9.00 MB
CPU time              : 0.598908 s

SATISFIABLE
